; SWAP2 SWAP3 SWAP1 DUP2 SWAP3 POP => POP DUP3 SWAP2 SWAP3 SWAP1
(set-option :produce-proofs true)
; 
(set-info :status unknown)
(declare-fun storage_t ((_ BitVec 256) (_ BitVec 256) (_ BitVec 256) (_ BitVec 256) Int (_ BitVec 256)) (_ BitVec 256))
(declare-fun storage_s ((_ BitVec 256) (_ BitVec 256) (_ BitVec 256) (_ BitVec 256) Int (_ BitVec 256)) (_ BitVec 256))
(declare-fun exc_halt_t (Int) Bool)
(declare-fun exc_halt_s (Int) Bool)
(declare-fun stack_t ((_ BitVec 256) (_ BitVec 256) (_ BitVec 256) (_ BitVec 256) Int (_ BitVec 6)) (_ BitVec 256))
(declare-fun stack_s ((_ BitVec 256) (_ BitVec 256) (_ BitVec 256) (_ BitVec 256) Int (_ BitVec 6)) (_ BitVec 256))
(declare-fun sc_t (Int) (_ BitVec 6))
(declare-fun sc_s (Int) (_ BitVec 6))
(declare-fun used_gas_t ((_ BitVec 256) (_ BitVec 256) (_ BitVec 256) (_ BitVec 256) Int) Int)
(declare-fun used_gas_s ((_ BitVec 256) (_ BitVec 256) (_ BitVec 256) (_ BitVec 256) Int) Int)
(assert
 (exists ((x_0 (_ BitVec 256)) (x_1 (_ BitVec 256)) (x_2 (_ BitVec 256)) (x_3 (_ BitVec 256)) )(let (($x7238 (forall ((w (_ BitVec 256)) )(let ((?x5265 (storage_t x_0 x_1 x_2 x_3 5 w)))
 (let ((?x5338 (storage_s x_0 x_1 x_2 x_3 6 w)))
 (= ?x5338 ?x5265))))
 ))
 (let (($x886 (exc_halt_t 5)))
 (let (($x772 (exc_halt_s 6)))
 (let (($x889 (= $x772 $x886)))
 (let (($x5375 (forall ((n (_ BitVec 6)) )(let ((?x6362 (stack_t x_0 x_1 x_2 x_3 5 n)))
 (let ((?x10388 (stack_s x_0 x_1 x_2 x_3 6 n)))
 (let (($x7110 (= ?x10388 ?x6362)))
 (or (bvsle (sc_t 5) n) $x7110)))))
 ))
 (let ((?x919 (sc_t 5)))
 (let ((?x926 (sc_s 6)))
 (let (($x929 (= ?x926 ?x919)))
 (let ((?x7376 (used_gas_t x_0 x_1 x_2 x_3 0)))
 (let ((?x6622 (used_gas_s x_0 x_1 x_2 x_3 0)))
 (let (($x6504 (= ?x6622 ?x7376)))
 (let (($x9218 (forall ((w (_ BitVec 256)) )(let ((?x7245 (storage_t x_0 x_1 x_2 x_3 0 w)))
 (let ((?x5326 (storage_s x_0 x_1 x_2 x_3 0 w)))
 (= ?x5326 ?x7245))))
 ))
 (let (($x56 (exc_halt_t 0)))
 (let (($x57 (exc_halt_s 0)))
 (let (($x58 (= $x57 $x56)))
 (let (($x5443 (forall ((n (_ BitVec 6)) )(let ((?x7348 (stack_t x_0 x_1 x_2 x_3 0 n)))
 (let ((?x6474 (stack_s x_0 x_1 x_2 x_3 0 n)))
 (let (($x10378 (= ?x6474 ?x7348)))
 (let ((?x63 (sc_t 0)))
 (let (($x5858 (bvsle ?x63 n)))
 (or $x5858 $x10378)))))))
 ))
 (let ((?x63 (sc_t 0)))
 (let ((?x72 (sc_s 0)))
 (let (($x73 (= ?x72 ?x63)))
 (let (($x5297 (= $x886 (or (exc_halt_t 4) (not (bvsle (_ bv0 6) (bvadd (_ bv62 6) (sc_t 4))))))))
 (let (($x5457 (forall ((w (_ BitVec 256)) )(let ((?x6865 (storage_t x_0 x_1 x_2 x_3 4 w)))
 (let ((?x5265 (storage_t x_0 x_1 x_2 x_3 5 w)))
 (= ?x5265 ?x6865))))
 ))
 (let (($x5247 (forall ((n (_ BitVec 6)) )(let ((?x6896 (stack_t x_0 x_1 x_2 x_3 4 n)))
 (let ((?x6362 (stack_t x_0 x_1 x_2 x_3 5 n)))
 (or (bvsle (bvadd (_ bv62 6) (sc_t 4)) n) (= ?x6362 ?x6896)))))
 ))
 (let (($x5298 (= (used_gas_t x_0 x_1 x_2 x_3 5) (+ 3 (used_gas_t x_0 x_1 x_2 x_3 4)))))
 (let ((?x3757 (sc_t 4)))
 (let ((?x5206 (bvadd (_ bv63 6) ?x3757)))
 (let ((?x538 (stack_t x_0 x_1 x_2 x_3 4 ?x5206)))
 (let ((?x7293 (bvadd (_ bv62 6) ?x3757)))
 (let ((?x7294 (stack_t x_0 x_1 x_2 x_3 4 ?x7293)))
 (let (($x3723 (exc_halt_t 4)))
 (let (($x7487 (= $x3723 (or (exc_halt_t 3) (not (bvsle (_ bv0 6) (bvadd (_ bv60 6) (sc_t 3))))))))
 (let (($x7506 (forall ((w (_ BitVec 256)) )(let ((?x6290 (storage_t x_0 x_1 x_2 x_3 3 w)))
 (let ((?x6865 (storage_t x_0 x_1 x_2 x_3 4 w)))
 (= ?x6865 ?x6290))))
 ))
 (let (($x7416 (forall ((n (_ BitVec 6)) )(let ((?x6149 (stack_t x_0 x_1 x_2 x_3 3 n)))
 (let ((?x6896 (stack_t x_0 x_1 x_2 x_3 4 n)))
 (or (= ?x6896 ?x6149) (bvsle (bvadd (_ bv60 6) (sc_t 3)) n)))))
 ))
 (let ((?x2012 (sc_t 3)))
 (let (($x267 (= ?x3757 ?x2012)))
 (let ((?x8737 (used_gas_t x_0 x_1 x_2 x_3 4)))
 (let ((?x8910 (stack_t x_0 x_1 x_2 x_3 3 (bvadd (_ bv61 6) ?x2012))))
 (let ((?x7515 (bvadd (_ bv63 6) ?x2012)))
 (let ((?x3059 (stack_t x_0 x_1 x_2 x_3 3 ?x7515)))
 (let (($x10336 (exc_halt_t 3)))
 (let (($x5382 (= $x10336 (or (exc_halt_t 2) (not (bvsle (_ bv0 6) (bvadd (_ bv61 6) (sc_t 2))))))))
 (let (($x7634 (forall ((w (_ BitVec 256)) )(let ((?x7021 (storage_t x_0 x_1 x_2 x_3 2 w)))
 (let ((?x6290 (storage_t x_0 x_1 x_2 x_3 3 w)))
 (= ?x6290 ?x7021))))
 ))
 (let (($x7398 (forall ((n (_ BitVec 6)) )(let ((?x6975 (stack_t x_0 x_1 x_2 x_3 2 n)))
 (let ((?x6149 (stack_t x_0 x_1 x_2 x_3 3 n)))
 (or (bvsle (bvadd (_ bv61 6) (sc_t 2)) n) (= ?x6149 ?x6975)))))
 ))
 (let ((?x2322 (used_gas_t x_0 x_1 x_2 x_3 3)))
 (let ((?x2033 (bvadd (_ bv62 6) ?x2012)))
 (let ((?x7313 (stack_t x_0 x_1 x_2 x_3 3 ?x2033)))
 (let (($x4090 (= ?x7313 (stack_t x_0 x_1 x_2 x_3 2 (bvadd (_ bv62 6) (sc_t 2))))))
 (let ((?x3116 (stack_t x_0 x_1 x_2 x_3 2 (bvadd (_ bv63 6) (sc_t 2)))))
 (let (($x5645 (= ?x3059 (stack_t x_0 x_1 x_2 x_3 2 (bvadd (_ bv61 6) (sc_t 2))))))
 (let (($x1920 (exc_halt_t 1)))
 (let (($x265 (not (= ((_ extract 6 6) (bvadd (_ bv1 7) (concat (_ bv0 1) (sc_t 1)))) (_ bv0 1)))))
 (let (($x903 (exc_halt_t 2)))
 (let (($x5813 (forall ((w (_ BitVec 256)) )(let ((?x6783 (storage_t x_0 x_1 x_2 x_3 1 w)))
 (let ((?x7021 (storage_t x_0 x_1 x_2 x_3 2 w)))
 (= ?x7021 ?x6783))))
 ))
 (let (($x2873 (forall ((n (_ BitVec 6)) )(let ((?x2304 (stack_t x_0 x_1 x_2 x_3 1 n)))
 (let ((?x6975 (stack_t x_0 x_1 x_2 x_3 2 n)))
 (or (bvsle (bvadd (_ bv61 6) (sc_t 1)) n) (= ?x6975 ?x2304)))))
 ))
 (let ((?x4056 (sc_t 2)))
 (let (($x8278 (= ?x4056 (bvadd (_ bv1 6) (sc_t 1)))))
 (let ((?x7018 (used_gas_t x_0 x_1 x_2 x_3 2)))
 (let (($x5324 (= (stack_t x_0 x_1 x_2 x_3 2 (bvadd (_ bv63 6) (sc_t 1))) (stack_t x_0 x_1 x_2 x_3 1 (bvadd (_ bv63 6) (sc_t 1))))))
 (let (($x5372 (= (stack_t x_0 x_1 x_2 x_3 2 (bvadd (_ bv62 6) (sc_t 1))) (stack_t x_0 x_1 x_2 x_3 1 (bvadd (_ bv62 6) (sc_t 1))))))
 (let ((?x4023 (sc_t 1)))
 (let ((?x5530 (bvadd (_ bv61 6) ?x4023)))
 (let ((?x5175 (stack_t x_0 x_1 x_2 x_3 1 ?x5530)))
 (let (($x7405 (forall ((w (_ BitVec 256)) )(let ((?x7245 (storage_t x_0 x_1 x_2 x_3 0 w)))
 (let ((?x6783 (storage_t x_0 x_1 x_2 x_3 1 w)))
 (= ?x6783 ?x7245))))
 ))
 (let (($x7519 (forall ((n (_ BitVec 6)) )(let ((?x7348 (stack_t x_0 x_1 x_2 x_3 0 n)))
 (let ((?x2304 (stack_t x_0 x_1 x_2 x_3 1 n)))
 (or (= ?x2304 ?x7348) (bvsle (bvadd (_ bv63 6) (sc_t 0)) n)))))
 ))
 (let (($x1546 (= $x772 (or (exc_halt_s 5) (not (bvsle (_ bv0 6) (bvadd (_ bv63 6) (sc_s 5))))))))
 (let (($x5684 (forall ((w (_ BitVec 256)) )(let ((?x10342 (storage_s x_0 x_1 x_2 x_3 5 w)))
 (let ((?x5338 (storage_s x_0 x_1 x_2 x_3 6 w)))
 (= ?x5338 ?x10342))))
 ))
 (let (($x10011 (forall ((n (_ BitVec 6)) )(let ((?x1711 (stack_s x_0 x_1 x_2 x_3 5 n)))
 (let ((?x10388 (stack_s x_0 x_1 x_2 x_3 6 n)))
 (or (= ?x10388 ?x1711) (bvsle (bvadd (_ bv63 6) (sc_s 5)) n)))))
 ))
 (let (($x5595 (= (used_gas_s x_0 x_1 x_2 x_3 6) (+ 2 (used_gas_s x_0 x_1 x_2 x_3 5)))))
 (let (($x3979 (exc_halt_s 5)))
 (let (($x5638 (= $x3979 (or (exc_halt_s 4) (not (bvsle (_ bv0 6) (bvadd (_ bv60 6) (sc_s 4))))))))
 (let (($x9721 (forall ((w (_ BitVec 256)) )(let ((?x1848 (storage_s x_0 x_1 x_2 x_3 4 w)))
 (let ((?x10342 (storage_s x_0 x_1 x_2 x_3 5 w)))
 (= ?x10342 ?x1848))))
 ))
 (let (($x9745 (forall ((n (_ BitVec 6)) )(let ((?x1559 (stack_s x_0 x_1 x_2 x_3 4 n)))
 (let ((?x1711 (stack_s x_0 x_1 x_2 x_3 5 n)))
 (or (= ?x1711 ?x1559) (bvsle (bvadd (_ bv60 6) (sc_s 4)) n)))))
 ))
 (let ((?x4305 (sc_s 4)))
 (let ((?x805 (sc_s 5)))
 (let (($x10898 (= ?x805 ?x4305)))
 (let ((?x1841 (used_gas_s x_0 x_1 x_2 x_3 5)))
 (let (($x5642 (= (stack_s x_0 x_1 x_2 x_3 5 (bvadd (_ bv62 6) ?x805)) (stack_s x_0 x_1 x_2 x_3 4 (bvadd (_ bv62 6) ?x4305)))))
 (let (($x5288 (= (stack_s x_0 x_1 x_2 x_3 5 (bvadd (_ bv61 6) ?x805)) (stack_s x_0 x_1 x_2 x_3 4 (bvadd (_ bv61 6) ?x4305)))))
 (let ((?x10396 (bvadd (_ bv63 6) ?x4305)))
 (let ((?x6237 (stack_s x_0 x_1 x_2 x_3 4 ?x10396)))
 (let (($x5423 (= (stack_s x_0 x_1 x_2 x_3 5 (bvadd (_ bv63 6) ?x805)) (stack_s x_0 x_1 x_2 x_3 4 (bvadd (_ bv60 6) ?x4305)))))
 (let (($x10906 (not (bvsle (_ bv0 6) (bvadd (_ bv62 6) (sc_s 3))))))
 (let (($x10592 (not (= ((_ extract 6 6) (bvadd (_ bv1 7) (concat (_ bv0 1) (sc_s 3)))) (_ bv0 1)))))
 (let (($x292 (exc_halt_s 3)))
 (let (($x64 (exc_halt_s 4)))
 (let (($x8861 (forall ((w (_ BitVec 256)) )(let ((?x1789 (storage_s x_0 x_1 x_2 x_3 3 w)))
 (let ((?x1848 (storage_s x_0 x_1 x_2 x_3 4 w)))
 (= ?x1848 ?x1789))))
 ))
 (let (($x9574 (forall ((n (_ BitVec 6)) )(let ((?x275 (sc_s 3)))
 (let ((?x10428 (bvadd (_ bv62 6) ?x275)))
 (let (($x10913 (bvsle ?x10428 n)))
 (let ((?x7274 (stack_s x_0 x_1 x_2 x_3 3 n)))
 (let ((?x1559 (stack_s x_0 x_1 x_2 x_3 4 n)))
 (or (= ?x1559 ?x7274) $x10913)))))))
 ))
 (let (($x10912 (= ?x4305 (bvadd (_ bv1 6) (sc_s 3)))))
 (let ((?x6697 (used_gas_s x_0 x_1 x_2 x_3 4)))
 (let ((?x275 (sc_s 3)))
 (let ((?x10578 (bvadd (_ bv63 6) ?x275)))
 (let ((?x6994 (stack_s x_0 x_1 x_2 x_3 3 ?x10578)))
 (let ((?x10428 (bvadd (_ bv62 6) ?x275)))
 (let ((?x5413 (stack_s x_0 x_1 x_2 x_3 3 ?x10428)))
 (let (($x6866 (= $x292 (or (exc_halt_s 2) (not (bvsle (_ bv0 6) (bvadd (_ bv62 6) (sc_s 2))))))))
 (let (($x5523 (forall ((w (_ BitVec 256)) )(let ((?x181 (storage_s x_0 x_1 x_2 x_3 2 w)))
 (let ((?x1789 (storage_s x_0 x_1 x_2 x_3 3 w)))
 (= ?x1789 ?x181))))
 ))
 (let (($x5169 (forall ((n (_ BitVec 6)) )(let ((?x218 (sc_s 2)))
 (let ((?x10744 (bvadd (_ bv62 6) ?x218)))
 (let (($x10749 (bvsle ?x10744 n)))
 (let ((?x6736 (stack_s x_0 x_1 x_2 x_3 2 n)))
 (let ((?x7274 (stack_s x_0 x_1 x_2 x_3 3 n)))
 (or (= ?x7274 ?x6736) $x10749)))))))
 ))
 (let ((?x218 (sc_s 2)))
 (let (($x10987 (= ?x275 ?x218)))
 (let ((?x7281 (used_gas_s x_0 x_1 x_2 x_3 3)))
 (let (($x247 (exc_halt_s 2)))
 (let (($x5155 (= $x247 (or (exc_halt_s 1) (not (bvsle (_ bv0 6) (bvadd (_ bv60 6) (sc_s 1))))))))
 (let (($x7564 (forall ((w (_ BitVec 256)) )(let ((?x6759 (storage_s x_0 x_1 x_2 x_3 1 w)))
 (let ((?x181 (storage_s x_0 x_1 x_2 x_3 2 w)))
 (= ?x181 ?x6759))))
 ))
 (let (($x5385 (forall ((n (_ BitVec 6)) )(let ((?x10370 (stack_s x_0 x_1 x_2 x_3 1 n)))
 (let ((?x6736 (stack_s x_0 x_1 x_2 x_3 2 n)))
 (or (bvsle (bvadd (_ bv60 6) (sc_s 1)) n) (= ?x6736 ?x10370)))))
 ))
 (let ((?x7232 (used_gas_s x_0 x_1 x_2 x_3 2)))
 (let ((?x5274 (stack_s x_0 x_1 x_2 x_3 1 (bvadd (_ bv62 6) (sc_s 1)))))
 (let ((?x10744 (bvadd (_ bv62 6) ?x218)))
 (let ((?x2367 (stack_s x_0 x_1 x_2 x_3 2 ?x10744)))
 (let ((?x5319 (stack_s x_0 x_1 x_2 x_3 1 (bvadd (_ bv61 6) (sc_s 1)))))
 (let ((?x1244 (stack_s x_0 x_1 x_2 x_3 1 (bvadd (_ bv63 6) (sc_s 1)))))
 (let ((?x9084 (bvadd (_ bv63 6) ?x218)))
 (let ((?x1292 (stack_s x_0 x_1 x_2 x_3 2 ?x9084)))
 (let (($x9280 (= ?x1292 (stack_s x_0 x_1 x_2 x_3 1 (bvadd (_ bv60 6) (sc_s 1))))))
 (let (($x9017 (forall ((w (_ BitVec 256)) )(let ((?x5326 (storage_s x_0 x_1 x_2 x_3 0 w)))
 (let ((?x6759 (storage_s x_0 x_1 x_2 x_3 1 w)))
 (= ?x6759 ?x5326))))
 ))
 (let (($x6508 (forall ((n (_ BitVec 6)) )(let ((?x6474 (stack_s x_0 x_1 x_2 x_3 0 n)))
 (let ((?x10370 (stack_s x_0 x_1 x_2 x_3 1 n)))
 (or (= ?x10370 ?x6474) (bvsle (bvadd (_ bv61 6) (sc_s 0)) n)))))
 ))
 (let (($x2535 (forall ((w (_ BitVec 256)) )(let ((?x5326 (storage_s x_0 x_1 x_2 x_3 0 w)))
 (= ?x5326 (_ bv0 256))))
 ))
 (let (($x6814 (= ?x6622 0)))
 (let (($x4937 (not $x57)))
 (let (($x5533 (= (stack_s x_0 x_1 x_2 x_3 0 (_ bv3 6)) x_3)))
 (let (($x698 (= (stack_s x_0 x_1 x_2 x_3 0 (_ bv2 6)) x_2)))
 (let (($x6079 (= (stack_s x_0 x_1 x_2 x_3 0 (_ bv1 6)) x_1)))
 (let (($x8782 (= (stack_s x_0 x_1 x_2 x_3 0 (_ bv0 6)) x_0)))
 (let (($x4065 (= ?x72 (_ bv4 6))))
 (and $x4065 $x8782 $x6079 $x698 $x5533 $x4937 $x6814 $x2535 (= ?x1244 (stack_s x_0 x_1 x_2 x_3 0 (bvadd (_ bv61 6) ?x72))) (= ?x5319 (stack_s x_0 x_1 x_2 x_3 0 (bvadd (_ bv63 6) ?x72))) (= ?x5274 (stack_s x_0 x_1 x_2 x_3 0 (bvadd (_ bv62 6) ?x72))) (= (used_gas_s x_0 x_1 x_2 x_3 1) (+ 3 ?x6622)) (= (sc_s 1) ?x72) $x6508 $x9017 (= (exc_halt_s 1) (or $x57 (not (bvsle (_ bv0 6) (bvadd (_ bv61 6) ?x72))))) $x9280 (= (stack_s x_0 x_1 x_2 x_3 2 (bvadd (_ bv60 6) ?x218)) ?x1244) (= (stack_s x_0 x_1 x_2 x_3 2 (bvadd (_ bv61 6) ?x218)) ?x5319) (= ?x2367 ?x5274) (= ?x7232 (+ 3 (used_gas_s x_0 x_1 x_2 x_3 1))) (= ?x218 (sc_s 1)) $x5385 $x7564 $x5155 (= ?x6994 ?x2367) (= ?x5413 ?x1292) (= ?x7281 (+ 3 ?x7232)) $x10987 $x5169 $x5523 $x6866 (= ?x6237 ?x5413) (= (stack_s x_0 x_1 x_2 x_3 4 ?x10428) ?x5413) (= (stack_s x_0 x_1 x_2 x_3 4 ?x10578) ?x6994) (= ?x6697 (+ 3 ?x7281)) $x10912 $x9574 $x8861 (= $x64 (or $x292 $x10592 $x10906)) $x5423 (= (stack_s x_0 x_1 x_2 x_3 5 (bvadd (_ bv60 6) ?x805)) ?x6237) $x5288 $x5642 (= ?x1841 (+ 3 ?x6697)) $x10898 $x9745 $x9721 $x5638 $x5595 (= ?x926 (bvadd (_ bv63 6) ?x805)) $x10011 $x5684 $x1546 (= (used_gas_t x_0 x_1 x_2 x_3 1) (+ 2 ?x7376)) (= ?x4023 (bvadd (_ bv63 6) ?x63)) $x7519 $x7405 (= $x1920 (or $x56 (not (bvsle (_ bv0 6) (bvadd (_ bv63 6) ?x63))))) (= ?x3116 ?x5175) (= (stack_t x_0 x_1 x_2 x_3 2 ?x5530) ?x5175) $x5372 $x5324 (= ?x7018 (+ 3 (used_gas_t x_0 x_1 x_2 x_3 1))) $x8278 $x2873 $x5813 (= $x903 (or $x265 $x1920 (not (bvsle (_ bv0 6) ?x5530)))) $x5645 (= ?x8910 ?x3116) $x4090 (= ?x2322 (+ 3 ?x7018)) (= ?x2012 ?x4056) $x7398 $x7634 $x5382 (= ?x538 (stack_t x_0 x_1 x_2 x_3 3 (bvadd (_ bv60 6) ?x2012))) (= (stack_t x_0 x_1 x_2 x_3 4 (bvadd (_ bv60 6) ?x3757)) ?x3059) (= (stack_t x_0 x_1 x_2 x_3 4 (bvadd (_ bv61 6) ?x3757)) ?x8910) (= ?x7294 ?x7313) (= ?x8737 (+ 3 ?x2322)) $x267 $x7416 $x7506 $x7487 (= (stack_t x_0 x_1 x_2 x_3 5 (bvadd (_ bv63 6) ?x919)) ?x7294) (= (stack_t x_0 x_1 x_2 x_3 5 (bvadd (_ bv62 6) ?x919)) ?x538) $x5298 (= ?x919 ?x3757) $x5247 $x5457 $x5297 $x73 $x5443 $x58 $x9218 $x6504 (not (and $x929 $x5375 $x889 $x7238))))))))))))))))))))))))))))))))))))))))))))))))))))))))))))))))))))))))))))))))))))))))))))))))))))))))))))))))))))))))))))))
 )
(check-sat)
(get-proof)
